0001 4
0002 16
0003 12
0004 12
0005 6
0006 3
0007 11
0008 17
0009 17
0010 17
0011 7
0012 16
0013 19
0014 13
0015 3
0016 22
0017 4
0018 12
0019 23
0020 2
0021 8
0022 15
0023 2
0024 23
0025 11
0026 21
0027 2
0028 1
0029 4
0030 5
0031 19
0032 8
0033 9
0034 9
0035 4
0036 23
0037 20
0038 4
0039 18
0040 18
0041 6
0042 18
0043 18
0044 4
0045 4
0046 5
0047 5
0048 2
0049 22
0050 15
0051 21
0052 5
0053 12
0054 14
0055 0
0056 20
0057 8
0058 3
0059 22
0060 5
0061 5
0062 9
0063 18
0064 9
0065 9
0066 18
0067 4
0068 19
0069 0
0070 20
0071 16
0072 7
0073 0
0074 16
0075 8
0076 13
0077 11
0078 14
0079 9
0080 8
0081 20
0082 20
0083 20
0084 20
0085 20
0086 20
0087 20
0088 20
0089 14
0090 14
0091 13
0092 6
0093 13
0094 21
0095 6
0096 16
0097 13
0098 16
0099 20
0100 21
0101 11
0102 11
0103 13
0104 12
0105 19
0106 20
0107 15
0108 0
0109 13
0110 13
0111 16
0112 15
0113 4
0114 21
0115 21
0116 8
0117 16
0118 15
0119 16
0120 15
0121 8
0122 3
0123 13
0124 3
0125 1
0126 1
0127 1
0128 1
0129 20
0130 0
0131 21
0132 15
0133 0
0134 23
0135 18
0136 14
0137 14
0138 12
0139 6
0140 5
0141 23
0142 18
0143 18
0144 9
0145 16
0146 16
0147 19
0148 11
0149 11
0150 13
0151 15
0152 11
0153 11
0154 12
0155 19
0156 15
0157 10
0158 23
0159 16
0160 1
0161 11
0162 20
0163 16
0164 15
0165 0
0166 8
0167 11
0168 3
0169 16
0170 12
0171 11
0172 12
0173 0
0174 15
0175 9
0176 13
0177 1
0178 16
0179 15
0180 3
0181 16
0182 0
0183 6
0184 13
0185 16
0186 6
0187 12
0188 6
0189 16
0190 16
